c --- [ banner ] -------------------------------------------------------------
c 
c CaDiCaL Radically Simplified CDCL SAT Solver
c Copyright (c) 2016-2021 A. Biere, M. Fleury, N. Froleyks
c 
c Version 1.5.2 a5f15211db36c3956764e18194dd5bd63bf3b5e6
c g++ (GCC) 9.3.0 -Wall -Wextra -O3 -DNDEBUG
c Fri Oct 21 01:27:37 EDT 2022 Linux gra-login3 3.10.0-1160.66.1.el7.x86_64 x86_64
c 
c --- [ limit ] --------------------------------------------------------------
c 
c setting conflict limit to 200000 conflicts (due to '200000')
c 
c --- [ parsing input ] ------------------------------------------------------
c 
c reading DIMACS file from '33.cubes6183.adj'
c opening file to read '33.cubes6183.adj'
c found 'p cnf 6160 1595482' header
c parsed 1595482 clauses in 19.52 seconds process time
c closing file '33.cubes6183.adj'
c after reading 1457566823 bytes 1390.0 MB
c 
c --- [ options ] ------------------------------------------------------------
c 
c all options are set to their default value
c 
c --- [ solving ] ------------------------------------------------------------
c 
c time measured in process time since initialization
c 
c  seconds    reductions  redundant   irredundant
c          MB     restarts       trail       variables
c            level   conflicts       glue         remaining
c 
c * 19.52 1386  0 0   0    0    0  0% 0 1595422 2270 37%
c { 21.07 1444  0 0   0    0    0  0% 0 1595422 2270 37%
c i 23.75 1485 380 0  11  122  107 27% 11 1595422 2262 37%
c i 24.05 1489 350 0  15  135  118 27% 13 1595422 2261 37%
c i 25.43 1495 213 0  28  235  167 25% 14 1595422 2256 37%
c i 25.48 1495 207 0  28  243  174 25% 14 1595422 2255 37%
c i 25.65 1495 187 0  29  274  200 26% 14 1595422 2250 37%
c i 25.69 1495 186 0  30  277  201 26% 14 1595422 2248 36%
c i 25.81 1495 182 0  33  286  209 26% 15 1595422 2247 36%
c - 29.89 1408 178 1  36  303  223 26% 15 244628 2247 36%
c i 30.92 1367 146 1  62  410  314 26% 18 244628 2246 36%
c i 31.06 1367 141 1  66  431  333 26% 19 244628 2245 36%
c i 31.15 1367 135 1  73  457  355 26% 20 244628 2244 36%
c i 31.17 1367 134 1  75  465  362 26% 20 244628 2243 36%
c i 31.26 1367 133 1  79  477  369 26% 20 244628 2242 36%
c i 31.42 1367 133 1  81  487  377 26% 21 244628 2241 36%
c i 32.05 1367 122 1 113  615  487 27% 26 244628 2240 36%
c i 32.06 1367 121 1 113  616  487 27% 26 244628 2239 36%
c i 32.06 1367 121 1 113  618  488 27% 26 244628 2238 36%
c i 32.08 1367 120 1 116  628  496 27% 26 244628 2237 36%
c 
c  seconds     reductions  redundant   irredundant
c          MB      restarts       trail       variables
c             level   conflicts       glue         remaining
c 
c i 32.42 1367 114 1 129  679  540 27% 26 244628 2222 36%
c i 32.53 1367 114 1 131  688  548 27% 26 244628 2221 36%
c i 32.59 1367 115 1 133  702  560 27% 27 244628 2219 36%
c i 32.75 1367 114 1 137  723  580 27% 28 244628 2218 36%
c i 32.75 1367 114 1 137  724  580 27% 28 244628 2217 36%
c i 33.63 1367 111 1 162  827  666 27% 29 244628 2216 36%
c i 33.93 1367 108 1 175  904  724 27% 30 244628 2215 36%
c i 34.02 1367 107 1 178  920  738 27% 30 244628 2214 36%
c i 34.03 1367 107 1 181  929  745 27% 30 244628 2213 36%
c i 34.08 1367 105 1 187  952  761 27% 30 244628 2212 36%
c i 34.13 1367 104 1 189  975  781 27% 30 244628 2211 36%
c i 34.15 1367 103 1 189  987  789 27% 30 244628 2210 36%
c } 34.17 1367 102 1 189 1000  799 27% 30 244628 2210 36%
c [ 34.17 1367  0 1 189 1000  799  0% 0 244628 2210 36%
c O 34.18 1367 19 1 189 1002  801 22% 12 244628 2210 36%
c i 34.29 1367 16 1 189 1047  837 29% 11 244628 2209 36%
c - 34.72 1446 22 2 189 1136  838 30% 18 205040 2209 36%
c i 34.77 1446 22 2 189 1159  859 30% 18 205040 2208 36%
c i 34.79 1446 22 2 189 1220  899 30% 17 205040 2207 36%
c i 34.81 1446 22 2 189 1271  930 30% 18 205040 2206 36%
c 
c  seconds    reductions  redundant   irredundant
c          MB     restarts       trail       variables
c            level   conflicts       glue         remaining
c 
c i 34.84 1446 22 2 189 1386 1009 31% 18 205040 2205 36%
c - 35.26 1446 22 3 190 2317 1254 31% 19 205028 2205 36%
c ] 35.58 1445 22 3 190 3001 1631 50% 19 205028 2205 36%
c { 35.58 1445 102 3 190 3001 1631 76% 30 205028 2205 36%
c F 35.58 1445 101 3 190 3006 1636 76% 30 205028 2205 36%
c i 35.81 1445 92 3 190 3147 1748 71% 27 205028 2204 36%
c i 35.89 1445 84 3 190 3277 1836 68% 26 205028 2203 36%
c - 36.30 1368 62 4 190 3891 1658 59% 21 205022 2203 36%
c i 36.58 1368 57 4 199 4157 1839 57% 20 205022 2202 36%
c i 36.74 1368 54 4 202 4368 1956 56% 19 205022 2201 36%
c 2 37.49 1368 45 4 217 5000 3062 53% 17 205001 2196 36%
c p 41.62 1368 45 4 217 5000 5332 53% 17 205001 2163 35%
c d 41.91 1368 45 4 217 5000 5314 53% 17 204901 2162 35%
c - 42.55 1340 39 5 243 5858 2092 52% 17 204901 2162 35%
c # 42.63 1340 38 5 243 6009 2196 52% 17 204901 2162 35%
c } 43.26 1340 35 5 257 7004 2807 50% 17 204901 2162 35%
c [ 43.26 1340 22 5 257 7004 2807 50% 19 204901 2162 35%
c - 43.81 1340 21 6 258 8221 2685 47% 18 204901 2162 35%
c I 44.78 1340 21 6 259 10012 3754 47% 18 204901 2162 35%
c - 46.18 1340 23 7 260 10978 3224 46% 19 204901 2162 35%
c 
c  seconds    reductions   redundant   irredundant
c          MB     restarts        trail       variables
c            level    conflicts       glue         remaining
c 
c - 48.71 1342 29 8 262 14125 3888 47% 24 204901 2162 35%
c p 50.95 1342 30 8 262 15000 7879 47% 24 204901 2162 35%
c ] 51.06 1342 30 8 262 15004 7883 47% 24 204901 2162 35%
c { 51.06 1342 35 8 262 15004 7883 50% 17 204901 2162 35%
c B 51.13 1342 35 8 262 15014 7888 50% 17 204901 2162 35%
c - 55.71 1342 33 9 528 17666 4716 49% 18 204901 2162 35%
c } 56.01 1342 32 9 528 18698 5552 49% 18 204901 2162 35%
c 1 56.01 1342 32 9 528 18698 5552 49% 18 204901 2162 35%
c 
c --- [ writing output ] -----------------------------------------------------
c 
c writing simplified CNF to DIMACS file 'simp/33.cubes6183.adj.simp1'
c * 56.01 1342 32 9 528 18698 5552 49% 18 204901 2162 35%
c opening file to write 'simp/33.cubes6183.adj.simp1'
c writing 'p cnf 6160 204901' header
c closing file 'simp/33.cubes6183.adj.simp1'
c after writing 86652235 bytes 82.6 MB
c wrote 204901 clauses in 0.64 seconds process time
c 
c --- [ writing extension ] --------------------------------------------------
c 
c writing extension stack to 'simp/33.cubes6183.adj.ext1'
c opening file to write 'simp/33.cubes6183.adj.ext1'
c closing file 'simp/33.cubes6183.adj.ext1'
c after writing 12838 bytes 0.0 MB
c wrote 860 witnesses in 0.00 seconds process time
c 
c --- [ result ] -------------------------------------------------------------
c 
s SATISFIABLE
c 
c --- [ run-time profiling ] -------------------------------------------------
c 
c process time taken by individual solving procedures
c (percentage relative to process time for solving)
c 
c        30.19   82.73% search
c        20.99   57.53% unstable
c        19.52   53.50% parse
c         7.65   20.96% stable
c         6.30   17.27% simplify
c         5.63   15.42% probe
c         1.55    4.24% lucky
c         0.06    0.16% ternary
c   =================================
c        36.49   64.41% solve
c 
c last line shows process time for solving
c (percentage relative to total process time)
c 
c --- [ statistics ] ---------------------------------------------------------
c 
c chronological:              4044        21.63 %  of conflicts
c conflicts:                 18698       512.43    per second
c decisions:                 52191      1430.31    per second
c fixed:                       848        13.77 %  of all variables
c learned:                   18277        97.75 %  per conflict
c learned_lits:            2980293       100.00 %  learned literals
c minimized:                     0         0.00 %  learned literals
c shrunken:                1882753        63.17 %  learned literals
c minishrunken:             235106         7.89 %  learned literals
c propagations:            2747217         0.08 M  per second
c reduced:                    7574        40.51 %  per conflict
c rephased:                      5      3739.60    interval
c restarts:                    528        35.41    interval
c stabilizing:                   2        53.49 %  of conflicts
c substituted:                   6         0.10 %  of all variables
c subsumed:                   5432         0.16 %  of all clauses
c ternary:                    1788         0.57 %  of resolved
c weakened:                     12         2.00    average size
c 
c seconds are measured in process time for solving
c 
c --- [ resources ] ----------------------------------------------------------
c 
c total process time since initialization:        56.65    seconds
c total real time since initialization:           56.81    seconds
c maximum resident set size of process:         1524.16    MB
c 
c --- [ shutting down ] ------------------------------------------------------
c 
c exit 10
WARNING! DIMACS header mismatch: wrong number of variables.
============================[ Problem Statistics ]=============================
|                                                                             |
|  Number of variables:          6120                                         |
|  Number of clauses:          204901                                         |
|  Parse time:                   1.16 s                                       |
|  Simplification time:          0.02 s                                       |
|                                                                             |
============================[ Search Statistics ]====================================================
| Conflicts |          ORIGINAL         |          LEARNT          | Num Sols |      SUBGRAPHS      |
|           |    Vars  Clauses Literals |    Limit  Clauses Lit/Cl |          | Canonical Noncanon. |
=====================================================================================================
|       100 |    6022   204901 18759885 |     2000      100    106 |        0 |        13         0 |
|       250 |    6022   204901 18759885 |     2000      250     93 |        0 |        23         0 |
|       492 |    6022   204918 18760118 |     2000      492     86 |        0 |        50        17 |
|       890 |    6022   204979 18760989 |     2000      890     78 |        0 |        65        78 |
|      1476 |    6022   205059 18762136 |     2000     1476     80 |        0 |       109       158 |
|      2271 |    6022   205095 18762848 |     3600     1271     52 |        0 |       137       194 |
|      6164 |    6022   207849 18825136 |     5005     3369     34 |        0 |      1029      2948 |
|      7883 |    6022   207860 18825610 |     6307     2590     25 |        0 |      1037      2959 |
|     14545 |    6022   211960 18899812 |     7555     6100     36 |        0 |      2159      7059 |
|     18471 |    6022   212042 18902037 |     8782     6253     52 |        0 |      2205      7141 |
|     24352 |    6022   212157 18904382 |     9991     7743     51 |        0 |      2280      7256 |
|     46225 |    6022   225381 19149691 |    13610    12835     25 |        0 |      4412     20480 |
|     65719 |    6022   231901 19260904 |    17211    10130     17 |        0 |      5592     27000 |
|    140856 |    6022   287577 20341766 |    25615    12471     13 |        0 |     15999     82676 |
|    190062 |    6022   307591 20671097 |    29207    21469     40 |        0 |     19338    102690 |
|    273887 |    6022   347627 21376230 |    35207    26294     41 |        0 |     24515    142726 |
|    464154 |    6022   472210 23600720 |    46018    36572     30 |        0 |     39130    267309 |
|    718482 |    6022   628012 26167556 |    58012    33894     16 |        0 |     54688    423111 |
|   1047188 |    6004   461915 20320792 |    65940    41528     36 |        0 |     72288    604028 |
=====================================================================================================
Number of solutions   : 0
Canonical subgraphs   : 81444          (19 /sec)
          order  3    : 1              (125000 /sec)
          order  4    : 1              (500000 /sec)
          order  5    : 1              (200000 /sec)
          order  6    : 1              (55556 /sec)
          order  7    : 1              (8621 /sec)
          order  8    : 2              (1357 /sec)
          order  9    : 7              (353 /sec)
          order 10    : 28             (104 /sec)
          order 11    : 117            (29 /sec)
          order 12    : 624            (15 /sec)
          order 13    : 3819           (15 /sec)
          order 14    : 23427          (22 /sec)
          order 15    : 46999          (19 /sec)
          order 16    : 4622           (13 /sec)
          order 17    : 1573           (11 /sec)
          order 18    : 197            (10 /sec)
          order 19    : 23             (8 /sec)
          order 20    : 1              (8 /sec)
          order 21    : 0              (-nan /sec)
          order 22    : 0              (-nan /sec)
Noncanonical subgraphs: 710666         (134 /sec)
          order  3    : 0              (-nan /sec)
          order  4    : 0              (-nan /sec)
          order  5    : 0              (-nan /sec)
          order  6    : 0              (-nan /sec)
          order  7    : 0              (-nan /sec)
          order  8    : 0              (-nan /sec)
          order  9    : 0              (-nan /sec)
          order 10    : 0              (-nan /sec)
          order 11    : 0              (-nan /sec)
          order 12    : 0              (-nan /sec)
          order 13    : 8925           (6309 /sec)
          order 14    : 101915         (817 /sec)
          order 15    : 40172          (1334 /sec)
          order 16    : 556189         (109 /sec)
          order 17    : 3243           (97 /sec)
          order 18    : 222            (54 /sec)
          order 19    : 0              (-nan /sec)
          order 20    : 0              (-nan /sec)
          order 21    : 0              (-nan /sec)
Canonicity checking   : 4354.2 s
Noncanonicity checking: 5308.67 s
Total canonicity time : 9662.87 s
database reductions   : 63
restarts              : 2554
conflicts             : 1308854        (129 /sec)
decisions             : 2288762        (0.00 % random) (226 /sec)
propagations          : 137076920      (13539 /sec)
conflict literals     : 70961546       (54.67 % deleted)
actual reward         : 0.081455
Memory used           : 399.00 MB
CPU time              : 10124.4 s

UNSATISFIABLE
